CMD:
./solvers/bin/cadical --plain --no-reduce -t 1600 ./data/cnfs//beemlifts2b1/beemlifts2b1.65.cnf

c --- [ banner ] -------------------------------------------------------------
c 
c CaDiCaL SAT Solver
c Copyright (c) 2016-2024
c A. Biere, M. Fleury, N. Froleyks, K. Fazekas, F. Pollitt, T. Faller
c JKU Linz, University of Freiburg, TU Wien
c 
c Version 2.1.3 5296d3d2a9bf48c154ab2acb5e44625776d821bf
c g++ (Gentoo 12.3.1_p20230526 p2) 12.3.1 20230526 -Wall -Wextra -O3 -DNDEBUG
c Sat Aug 9 07:26:21 PDT 2025 Linux cedar2.int.cedar.computecanada.ca 5.14.0-362.24.2.el9_3.x86_64 x86_64
c 
c --- [ limit ] --------------------------------------------------------------
c 
c setting time limit to 1600 seconds real time (due to '-t 1600')
c 
c --- [ parsing input ] ------------------------------------------------------
c 
c reading DIMACS file from './data/cnfs//beemlifts2b1/beemlifts2b1.65.cnf'
c opening file to read './data/cnfs//beemlifts2b1/beemlifts2b1.65.cnf'
c found 'p cnf 1506240 4454988' header
c parsed 4454988 clauses in 0.68 seconds process time
c 
c --- [ options ] ------------------------------------------------------------
c 
c   --compact=false                (different from default 'true')
c   --decompose=false              (different from default 'true')
c   --deduplicate=false            (different from default 'true')
c   --elim=false                   (different from default 'true')
c   --probe=false                  (different from default 'true')
c   --reduce=false                 (different from default 'true')
c   --subsume=false                (different from default 'true')
c   --ternary=false                (different from default 'true')
c   --transred=false               (different from default 'true')
c   --vivify=false                 (different from default 'true')
c 
c --- [ solving ] ------------------------------------------------------------
c 
c time measured in process time since initialization
c 
c  seconds   reductions  redundant   irredundant
c          MB    restarts       trail         variables
c           level   conflicts       glue            remaining
c 
c *  0.68 687  0 0   0    0    0  0% 0 4453579 1252847 83%
c {  0.79 703  0 0   0    0    0  0% 0 4453579 1252847 83%
c i  1.14 705 136 0  10  203  134 25% 4 4453579 1252819 83%
c i  1.14 705 135 0  10  204  134 25% 4 4453579 1252802 83%
c i  1.22 705 108 0  10  278  179 24% 5 4453579 1252506 83%
c i  1.22 705 108 0  10  279  179 24% 5 4453579 1252504 83%
c i  1.22 705 107 0  10  280  179 24% 5 4453579 1252502 83%
c i  1.22 705 107 0  10  281  179 24% 5 4453579 1252499 83%
c i  1.22 705 106 0  10  283  179 24% 5 4453579 1252402 83%
c i  1.34 705 163 0  14  412  290 37% 5 4453579 1252227 83%
c i  2.26 709 167 0  21  659  484 41% 5 4453579 1252226 83%
c i  2.44 709 160 0  29  697  519 41% 5 4453579 1252224 83%
c i  3.05 710 152 0  54  915  699 44% 5 4453579 1252220 83%
c i  3.05 710 151 0  55  916  699 44% 5 4453579 1252127 83%
c i  3.05 710 151 0  55  917  699 44% 5 4453579 1252001 83%
c i  3.07 710 151 0  59  937  714 43% 5 4453579 1251713 83%
c i  3.09 710 149 0  60  944  719 43% 5 4453579 1251712 83%
c }  3.48 710 148 0  74 1000  772 42% 5 4453579 1251712 83%
c [  3.48 710  0 0  74 1000  772  0% 0 4453579 1251712 83%
c O  3.49 710 42 0  74 1002  774 52% 4 4453579 1251712 83%
c 
c  seconds    reductions  redundant    irredundant
c          MB     restarts       trail          variables
c            level   conflicts       glue             remaining
c 
c i  3.67 710 375 0  74 1094  853 24% 75 4453579 1251711 83%
c ]  4.27 715 589 0  74 3005 1430 25% 89 4453579 1251711 83%
c {  4.27 715 148 0  74 3005 1430 42% 5 4453579 1251711 83%
c F  4.28 715 147 0  75 3006 1430 42% 5 4453579 1251711 83%
c i  4.28 715 147 0  75 3006 1430 42% 5 4453579 1250430 83%
c i  5.08 715 260 0 105 3228 1636 40% 10 4453579 1248400 83%
c i  5.26 715 248 0 116 3301 1701 40% 10 4453579 1248399 83%
c i  5.48 715 230 0 119 3446 1804 39% 10 4453579 1248398 83%
c i  5.75 716 213 0 122 3620 1924 38% 10 4453579 1247573 83%
c i  6.90 716 204 0 166 4200 2381 44% 11 4453579 1247545 83%
c i  6.92 716 203 0 168 4211 2387 44% 11 4453579 1247544 83%
c i  7.62 717 247 0 188 4649 2717 44% 10 4453579 1247482 83%
c i  7.62 717 247 0 188 4652 2718 44% 10 4453579 1247481 83%
c i  7.62 717 248 0 188 4660 2725 44% 10 4453579 1247480 83%
c i  7.62 717 249 0 188 4665 2728 44% 10 4453579 1247479 83%
c i  7.62 717 249 0 188 4671 2732 44% 10 4453579 1247478 83%
c i  7.63 717 250 0 189 4682 2735 44% 10 4453579 1245614 83%
c i  7.66 717 251 0 190 4696 2744 43% 10 4453579 1245612 83%
c i  8.72 718 241 0 209 5326 3179 42% 13 4453579 1244571 83%
c i  8.76 718 240 0 212 5338 3190 42% 13 4453579 1243761 83%
c 
c  seconds    reductions  redundant    irredundant
c          MB     restarts       trail          variables
c            level   conflicts       glue             remaining
c 
c i  8.78 718 240 0 213 5342 3193 42% 13 4453579 1243760 83%
c i  9.46 718 224 0 226 5661 3471 42% 13 4453579 1243759 83%
c #  9.63 718 210 0 229 6007 3765 40% 12 4453579 1243759 83%
c i  9.96 718 224 0 232 6323 4042 42% 12 4453579 1243757 83%
... skipped 244 lines ...
c              level      conflicts          glue             remaining
c 
c i 1123.33 1000 64 0 21353 490228 434042 72% 14 3517126 1219452 81%
c i 1128.45 1000 64 0 21480 491896 435555 72% 14 3517126 1219444 81%
c B 1140.11 1000 64 0 21711 496093 439412 72% 14 3517126 1219443 81%
c i 1149.75 1000 63 0 21957 499508 442491 72% 14 3517126 1219442 81%
c i 1163.64 1000 63 0 22268 503658 446163 72% 14 3517126 1219434 81%
c i 1163.94 1000 63 0 22268 503698 446191 72% 14 3517126 1219408 81%
c } 1190.25 1002 64 0 22927 511101 452981 73% 14 3517126 1219408 81%
c [ 1190.25 1002 260 0 22927 511101 452981 85% 35 3517126 1219408 81%
c i 1195.20 1002 259 0 22928 515401 456996 85% 34 3517126 1219407 81%
c i 1197.70 1002 260 0 22928 517277 458731 85% 34 3517126 1219406 81%
c I 1212.28 1002 261 0 22928 528097 468837 86% 35 3517126 1219406 81%
c i 1231.07 1002 241 0 22928 543040 483113 87% 35 3517126 1219405 81%
c B 1256.53 1002 229 0 22938 561100 500270 87% 36 3517126 1219405 81%
c i 1263.21 1002 236 0 22942 569029 507830 88% 36 3517126 1219404 81%
c i 1266.23 1002 236 0 22943 571820 510498 88% 35 3517126 1219403 81%
c i 1277.07 1002 234 0 22946 581797 520077 89% 35 3517126 1219402 81%
c i 1281.53 1002 232 0 22948 585430 523485 89% 36 3517126 1219401 81%
c W 1296.91 1100 231 0 22953 595101 532243 89% 37 3515572 1219401 81%
c i 1300.05 1100 230 0 22955 598094 535099 90% 37 3515572 1219400 81%
c i 1340.39 1100 223 0 22959 627818 563625 91% 36 3515572 1219399 81%
c 
c   seconds      reductions       redundant     irredundant
c            MB       restarts            trail          variables
c               level      conflicts          glue             remaining
c 
c O 1343.86 1100 223 0 22960 630102 565827 91% 36 3515572 1219399 81%
c i 1349.05 1100 220 0 22963 634174 569655 91% 36 3515572 1219398 81%
c i 1351.51 1100 220 0 22965 636271 571660 91% 36 3515572 1219397 81%
c B 1395.40 1100 197 0 22977 666104 599599 92% 34 3515572 1219397 81%
c i 1413.29 1100 196 0 22982 676960 609992 92% 35 3515572 1219391 81%
c i 1439.49 1100 195 0 22989 696568 628703 92% 35 3515572 1219390 81%
c W 1454.31 1194 193 0 22990 703105 634968 93% 36 3515539 1219390 81%
c i 1523.32 1194 193 0 22991 733457 663624 92% 44 3515539 1219389 81%
c i 1523.37 1194 193 0 22991 733536 663698 92% 44 3515539 1219387 81%
c i 1523.45 1194 194 0 22991 733876 663976 92% 44 3515539 1219385 81%
c i 1523.45 1194 194 0 22991 733889 663988 92% 44 3515539 1219384 81%
c i 1524.04 1194 194 0 22991 734657 664668 92% 44 3515539 1219383 81%
c i 1524.05 1194 194 0 22991 734661 664670 92% 44 3515539 1219381 81%
c i 1525.76 1194 194 0 22991 736762 666561 91% 44 3515539 1219380 81%
c I 1532.82 1194 193 0 22991 741106 670640 91% 44 3515539 1219380 81%
c i 1563.62 1194 183 0 22992 764048 692208 88% 45 3515539 1219379 81%
c B 1584.77 1194 181 0 22992 780107 707570 88% 45 3515539 1219379 81%
c ] 1591.86 1197 179 0 22992 785387 712636 88% 44 3515539 1219379 81%
c ? 1591.86 1197 179 0 22992 785387 712636 88% 44 3515539 1219379 81%
c 
c --- [ result ] -------------------------------------------------------------
c 
c UNKNOWN
c 
c --- [ run-time profiling ] -------------------------------------------------
c 
c process time taken by individual solving procedures
c (percentage relative to process time for solving)
c 
c      1591.19  100.00% search
c      1015.46   63.82% unstable
c       566.79   35.62% stable
c         8.83    0.55% walk
c         0.68    0.04% parse
c         0.11    0.01% lucky
c         0.00    0.00% simplify
c   =================================
c      1591.19   99.96% solve
c 
c last line shows process time for solving
c (percentage relative to total process time)
c 
c --- [ statistics ] ---------------------------------------------------------
c 
c chronological:            225638        28.73 %  of conflicts
c conflicts:                785387       493.59    per second
c decisions:               2966446      1864.30    per second
c fixed:                    286861        19.04 %  of all variables
c learned:                  742282        94.51 %  per conflict
c learned_lits:          231827742       100.00 %  learned literals
c minimized:                     0         0.00 %  learned literals
c shrunken:               49698967        21.44 %  learned literals
c minishrunken:           60223599        25.98 %  learned literals
c otfs:                       1328         0.17 %  of conflict
c propagations:        14815772193         9.31 M  per second
c rephased:                     39     20138.13    interval
c restarts:                  22992        34.16    interval
c stabilizing:                   5        56.57 %  of conflicts
c subsumed:                  27844         0.54 %  of all clauses
c strengthened:               1321         0.03 %  of all clauses
c walked:                       11     71398.82    interval
c 
c seconds are measured in process time for solving
c 
c --- [ resources ] ----------------------------------------------------------
c 
c total process time since initialization:      1591.87    seconds
c total real time since initialization:         1600.01    seconds
c maximum resident set size of process:         1601.17    MB
c 
c --- [ shutting down ] ------------------------------------------------------
c 
c exit 0
